% From JaCoP's nonogramRepository/data067.nin
 rows = 25;
 row_rule_len = 7;
 row_rules = array2d(1..rows, 1..row_rule_len, 
[
 0,0,0,0,0,0,4,
 0,0,0,0,0,2,2,
 0,0,0,2,1,1,12,
 0,0,2,1,1,1,1,
 0,0,0,2,2,2,12,
 0,0,0,2,1,1,18,
 0,0,0,0,0,2,14,
 0,0,0,0,0,9,12,
 0,0,0,0,0,0,25,
 0,0,0,0,0,11,12,
 0,0,0,0,0,9,12,
 0,0,0,0,0,9,12,
 0,0,0,0,0,7,12,
 0,0,0,2,2,2,2,
 0,1,3,1,1,4,1,
 0,0,0,0,0,0,26,
 0,0,0,0,0,1,1,
 1,3,2,2,2,2,1,
 1,3,2,2,2,2,1,
 0,0,1,1,1,1,1,
 0,0,0,0,0,2,2,
 0,0,0,0,0,0,24,
 0,0,0,0,0,2,2,
 0,0,0,0,1,16,1,
 0,0,0,0,1,18,1
]);

 cols = 30;
 col_rule_len = 7;
 col_rules = array2d(1..cols, 1..col_rule_len, 
[
 0,0,0,0,0,0,1,
 0,0,0,0,0,0,2,
 0,0,0,2,1,6,3,
 0,0,0,2,2,1,3,
 0,0,0,7,3,2,1,
 0,0,0,8,1,2,1,
 0,3,6,1,2,1,1,
 0,0,2,6,2,1,2,
 0,0,6,2,1,1,2,
 0,0,3,6,2,1,2,
 0,2,6,1,1,1,2,
 0,0,0,7,1,1,2,
 0,1,5,3,1,1,2,
 0,0,1,2,1,1,2,
 1,2,1,1,2,1,2,
 0,1,9,1,2,1,2,
 0,0,0,1,12,1,2,
 0,1,10,1,2,1,2,
 0,2,9,1,2,1,2,
 0,0,3,9,2,1,2,
 1,1,9,2,2,1,2,
 1,1,9,2,2,1,2,
 0,0,3,9,2,1,2,
 0,2,9,1,2,1,1,
 0,0,1,10,1,2,1,
 0,0,0,0,1,12,1,
 0,0,0,1,9,1,3,
 0,0,0,1,2,6,3,
 0,0,0,0,0,0,1,
 0,0,0,0,0,0,1
]);

